149
0 52 23 53 9 148 62 37 95 65 
127 97 26 80 12 128 85 118 103 134 
144 10 120 138 5 63 141 146 59 72 
87 131 114 70 137 3 147 98 33 34 
20 27 104 143 106 105 47 123 82 11 
6 96 94 89 19 135 58 113 66 32 
86 16 79 61 64 67 30 35 40 69 
112 108 24 101 25 130 133 136 55 60 
31 75 74 54 88 77 7 124 13 117 
93 50 68 76 44 92 90 107 119 84 
43 21 41 91 39 4 51 132 22 109 
111 49 46 126 122 145 48 78 142 83 
99 15 17 71 57 18 29 116 45 102 
100 129 115 28 139 56 121 125 14 38 
36 81 42 110 1 2 140 73 8 
